0	470	445	0	200
1	11	247	0	200
2	83	134	0	200
3	167	358	0	200
4	406	458	0	200
5	140	68	0	200
6	240	400	0	200
7	60	471	0	200
8	71	195	0	200
9	465	131	0	200
10	96	330	0	200
11	211	314	0	200
12	447	412	0	200
13	186	296	0	200
14	481	156	0	200
15	267	143	0	200
16	201	107	0	200
17	1	481	0	200
18	142	225	0	200
19	221	144	0	200
20	258	320	0	200
21	30	17	0	200
22	487	339	0	200
23	260	29	0	200
24	222	133	0	200
